(set-logic HORN)
(declare-datatypes ((Bool_0 0)) (((false_0 ) (true_0 ))))
(declare-fun diseqBool_0 (Bool_0 Bool_0) Bool)
(declare-datatypes ((Nat_0 0)) (((Z_0 ) (S_0 (projS_0 Nat_0)))))
(declare-fun diseqNat_0 (Nat_0 Nat_0) Bool)
(declare-datatypes ((list_0 0)) (((nil_0 ) (cons_0 (head_0 Nat_0) (tail_0 list_0)))))
(declare-fun x_0 (Bool_0 Nat_0 Nat_0) Bool)
(declare-fun count_0 (Nat_0 Nat_0 list_0) Bool)
(declare-fun x_4 (Nat_0 Nat_0 Nat_0) Bool)
(declare-fun x_6 (list_0 list_0 list_0) Bool)
(assert (diseqBool_0 false_0 true_0))
(assert (diseqBool_0 true_0 false_0))
(assert (forall ((x_38 Nat_0))
	(diseqNat_0 Z_0 (S_0 x_38))))
(assert (forall ((x_39 Nat_0))
	(diseqNat_0 (S_0 x_39) Z_0)))
(assert (forall ((x_40 Nat_0) (x_41 Nat_0))
	(=> (diseqNat_0 x_40 x_41) (diseqNat_0 (S_0 x_40) (S_0 x_41)))))
(assert (forall ((x_8 Bool_0) (y_1 Nat_0) (x_2 Nat_0))
	(=> (x_0 x_8 x_2 y_1) (x_0 x_8 (S_0 x_2) (S_0 y_1)))))
(assert (forall ((x_2 Nat_0))
	(x_0 false_0 (S_0 x_2) Z_0)))
(assert (forall ((z_1 Nat_0))
	(x_0 false_0 Z_0 (S_0 z_1))))
(assert (x_0 true_0 Z_0 Z_0))
(assert (forall ((x_15 Nat_0) (z_2 Nat_0) (ys_0 list_0) (x_3 Nat_0))
	(=> (and (count_0 x_15 x_3 ys_0) (x_0 true_0 x_3 z_2)) (count_0 (S_0 x_15) x_3 (cons_0 z_2 ys_0)))))
(assert (forall ((x_17 Nat_0) (x_16 Bool_0) (z_2 Nat_0) (ys_0 list_0) (x_3 Nat_0))
	(=> (and (diseqBool_0 x_16 true_0) (count_0 x_17 x_3 ys_0) (x_0 x_16 x_3 z_2)) (count_0 x_17 x_3 (cons_0 z_2 ys_0)))))
(assert (forall ((x_3 Nat_0))
	(count_0 Z_0 x_3 nil_0)))
(assert (forall ((x_21 Nat_0) (z_3 Nat_0) (y_3 Nat_0))
	(=> (x_4 x_21 z_3 y_3) (x_4 (S_0 x_21) (S_0 z_3) y_3))))
(assert (forall ((x_22 Nat_0))
	(x_4 x_22 Z_0 x_22)))
(assert (forall ((x_24 list_0) (z_4 Nat_0) (xs_0 list_0) (y_4 list_0))
	(=> (x_6 x_24 xs_0 y_4) (x_6 (cons_0 z_4 x_24) (cons_0 z_4 xs_0) y_4))))
(assert (forall ((x_25 list_0))
	(x_6 x_25 nil_0 x_25)))
(assert (forall ((x_26 Nat_0) (x_27 Nat_0) (x_28 Nat_0) (x_29 list_0) (x_30 Nat_0) (n_0 Nat_0) (xs_1 list_0) (ys_1 list_0))
	(=> (and (diseqNat_0 x_28 x_30) (count_0 x_26 n_0 xs_1) (count_0 x_27 n_0 ys_1) (x_4 x_28 x_26 x_27) (x_6 x_29 xs_1 ys_1) (count_0 x_30 n_0 x_29)) false)))
(check-sat)
(get-model)
